(set-logic QF_S)
(declare-fun var0 () String)
(assert (str.in.re var0 (re.++ (re.+ (re.union (str.to.re "0") (str.to.re "11"))) (re.++ (re.union (re.union (str.to.re "222") (str.to.re "33")) (re.union (str.to.re "4") (str.to.re "5"))) (re.++ (re.* (re.union (str.to.re "66") (str.to.re "77"))) (re.++ (re.+ (re.union (str.to.re "8") (str.to.re "99"))) (re.++ (re.+ (re.* (str.to.re "aaa"))) (re.++ (re.union (re.union (str.to.re "bbb") (str.to.re "ccc")) (re.union (str.to.re "dd") (str.to.re "eee"))) (re.++ (re.* (re.+ (str.to.re "fff"))) (re.++ (re.* (re.* (str.to.re "g"))) (re.++ (re.* (re.+ (str.to.re "hh"))) (re.++ (re.union (re.union (str.to.re "i") (str.to.re "jj")) (re.union (str.to.re "kkk") (str.to.re "l"))) (re.++ (re.union (re.+ (str.to.re "m")) (re.+ (str.to.re "n"))) (re.++ (re.union (re.+ (str.to.re "oo")) (re.+ (str.to.re "ppp"))) (re.++ (re.* (re.* (str.to.re "qq"))) (re.++ (re.+ (re.union (str.to.re "r") (str.to.re "ss"))) (re.++ (re.+ (re.+ (str.to.re "t"))) (re.++ (re.* (re.* (str.to.re "uuu"))) (re.++ (re.+ (re.union (str.to.re "v") (str.to.re "w"))) (re.++ (re.* (re.union (str.to.re "xxx") (str.to.re "y"))) (re.++ (re.* (re.union (str.to.re "zz") (str.to.re "AA"))) (re.++ (re.* (re.union (str.to.re "BBB") (str.to.re "CCC"))) (re.++ (re.+ (re.* (str.to.re "D"))) (re.++ (re.* (re.union (str.to.re "EE") (str.to.re "FFF"))) (re.++ (re.union (re.+ (str.to.re "GGG")) (re.+ (str.to.re "H"))) (re.++ (re.+ (re.+ (str.to.re "I"))) (re.++ (re.union (re.* (str.to.re "J")) (re.* (str.to.re "KK"))) (re.++ (re.* (re.+ (str.to.re "L"))) (re.++ (re.union (re.* (str.to.re "MMM")) (re.* (str.to.re "NN"))) (re.++ (re.* (re.union (str.to.re "O") (str.to.re "PPP"))) (re.++ (re.union (re.+ (str.to.re "QQ")) (re.+ (str.to.re "R"))) (re.++ (re.* (re.* (str.to.re "S"))) (re.+ (re.union (str.to.re "TTT") (str.to.re "UU")))))))))))))))))))))))))))))))))))
(assert (not (str.in.re var0 (re.++ (re.* (re.+ (str.to.re "000"))) (re.++ (re.union (re.union (str.to.re "11") (str.to.re "2")) (re.union (str.to.re "333") (str.to.re "4"))) (re.++ (re.* (re.* (str.to.re "5"))) (re.++ (re.union (re.* (str.to.re "66")) (re.* (str.to.re "77"))) (re.++ (re.union (re.+ (str.to.re "8")) (re.+ (str.to.re "99"))) (re.++ (re.union (re.union (str.to.re "a") (str.to.re "bbb")) (re.union (str.to.re "c") (str.to.re "ddd"))) (re.++ (re.union (re.union (str.to.re "eee") (str.to.re "f")) (re.union (str.to.re "gg") (str.to.re "hh"))) (re.++ (re.union (re.union (str.to.re "ii") (str.to.re "j")) (re.union (str.to.re "k") (str.to.re "ll"))) (re.++ (re.union (re.+ (str.to.re "mmm")) (re.+ (str.to.re "n"))) (re.++ (re.union (re.+ (str.to.re "o")) (re.+ (str.to.re "p"))) (re.++ (re.+ (re.+ (str.to.re "qqq"))) (re.++ (re.+ (re.union (str.to.re "rrr") (str.to.re "ss"))) (re.++ (re.+ (re.* (str.to.re "ttt"))) (re.++ (re.union (re.union (str.to.re "u") (str.to.re "v")) (re.union (str.to.re "www") (str.to.re "xxx"))) (re.++ (re.+ (re.union (str.to.re "yy") (str.to.re "zz"))) (re.++ (re.union (re.* (str.to.re "A")) (re.* (str.to.re "BBB"))) (re.++ (re.* (re.* (str.to.re "CCC"))) (re.++ (re.union (re.union (str.to.re "DDD") (str.to.re "EEE")) (re.union (str.to.re "FFF") (str.to.re "GGG"))) (re.++ (re.+ (re.union (str.to.re "HHH") (str.to.re "II"))) (re.++ (re.+ (re.* (str.to.re "J"))) (re.++ (re.+ (re.* (str.to.re "KK"))) (re.++ (re.+ (re.+ (str.to.re "LL"))) (re.++ (re.* (re.* (str.to.re "M"))) (re.++ (re.union (re.union (str.to.re "NNN") (str.to.re "OO")) (re.union (str.to.re "PP") (str.to.re "QQQ"))) (re.++ (re.+ (re.+ (str.to.re "R"))) (re.++ (re.+ (re.+ (str.to.re "SS"))) (re.++ (re.* (re.union (str.to.re "TT") (str.to.re "UU"))) (re.++ (re.union (re.union (str.to.re "VVV") (str.to.re "WWW")) (re.union (str.to.re "X") (str.to.re "Y"))) (re.++ (re.+ (re.* (str.to.re "ZZ"))) (re.++ (re.union (re.union (str.to.re "!!") (str.to.re """""")) (re.union (str.to.re "##") (str.to.re "$$"))) (re.+ (re.+ (str.to.re "%"))))))))))))))))))))))))))))))))))))
(check-sat)